LATTICE_PARAMETERS
1.0
-4.6379494063714057  4.6379494063714057  6.3809724878934997
 4.6379494063714057 -4.6379494063714057  6.3809724878934997
 4.6379494063714057  4.6379494063714057 -6.3809724878934997
Mg Ag Sb
8  8  8
Direct
0.3903527490501868  0.0890967307668484  0.2492648588245505
0.8398318749422946  0.1410878892256328  0.7507351411754497
0.9109032662331480  0.1601681250577053  0.3012560142833381
0.8589121407743697  0.6096472809498158  0.6987439557166665
0.3398318749422946  0.5890967337668520  0.6987439557166665
0.8903527190501842  0.6410878592256303  0.3012560142833381
0.3589121107743672  0.6601681250577054  0.2492648588245505
0.4109032662331478  0.1096472509498132  0.7507351411754497
0.5915995888000679  0.3467775826828083  0.7072094769199646
0.6395681057628434  0.8843901118801032  0.2927905230800353
0.6532224173171920  0.3604318942371564  0.2448220071172633
0.1156098881198967  0.4084004111999322  0.7551779928827366
0.1395681057628435  0.8467775826828080  0.7551779928827366
0.0915995888000679  0.3843901118801033  0.2448220071172633
0.6156098881198968  0.8604318942371566  0.7072094769199646
0.1532224173171919  0.9084004111999321  0.2927905230800353
0.2500000000000000  0.2500000000000000  0.0000000000000000
0.7500000000000000  0.7500000000000000  0.0000000000000000
0.0000000000000000  0.0000000000000000  0.0000000000000000
0.5000000000000000  0.5000000000000000  0.0000000000000000
0.4722945312038201  0.4722945312038201  0.4445890324076447
0.0277054987961753  0.0277054987961753  0.5554109975923505
0.5277054397961740  0.9722945012038247  0.0000000000000000
0.9722945012038247  0.5277054397961740  0.0000000000000000
